(set-logic ALL)
(set-option :produce-models true)
(declare-fun sym205 () String)
(assert (<= (str.len sym205) 1))
(declare-fun sym547 () String)
(assert (<= (str.len sym547) 1))
(declare-fun sym4639 () String)
(assert (<= (str.len sym4639) 1))
(declare-fun sym1028 () String)
(assert (<= (str.len sym1028) 1))
(declare-fun sym3789 () String)
(assert (<= (str.len sym3789) 1))
(declare-fun sym4855 () String)
(assert (<= (str.len sym4855) 1))
(declare-fun sym161 () String)
(assert (<= (str.len sym161) 1))
(declare-fun sym2092 () String)
(assert (<= (str.len sym2092) 1))
(declare-fun sym812 () String)
(assert (<= (str.len sym812) 1))
(declare-fun sym2308 () String)
(assert (<= (str.len sym2308) 1))
(declare-fun sym1659 () String)
(assert (<= (str.len sym1659) 1))
(declare-fun sym1876 () String)
(assert (<= (str.len sym1876) 1))
(declare-fun sym2943 () String)
(assert (<= (str.len sym2943) 1))
(declare-fun sym2525 () String)
(assert (<= (str.len sym2525) 1))
(declare-fun sym5438 () String)
(assert (<= (str.len sym5438) 1))
(declare-fun sym3577 () String)
(assert (<= (str.len sym3577) 1))
(declare-fun sym1234 () String)
(assert (<= (str.len sym1234) 1))
(declare-fun sym3159 () String)
(assert (<= (str.len sym3159) 1))
(declare-fun sym4005 () String)
(assert (<= (str.len sym4005) 1))
(declare-fun sym2741 () String)
(assert (<= (str.len sym2741) 1))
(declare-fun sym4423 () String)
(assert (<= (str.len sym4423) 1))
(declare-fun sym5058 () String)
(assert (<= (str.len sym5058) 1))
(declare-fun sym1450 () String)
(assert (<= (str.len sym1450) 1))
(declare-fun sym3375 () String)
(assert (<= (str.len sym3375) 1))
(declare-fun sym4221 () String)
(assert (<= (str.len sym4221) 1))
(declare-fun sym5252 () String)
(assert (<= (str.len sym5252) 1))
(define-fun Alphabet () RegLan 
	(re.* (re.union (str.to_re "A") (str.to_re "B") (str.to_re "C") (str.to_re "D") (str.to_re "E") (str.to_re "F") (str.to_re "G") (str.to_re "H") (str.to_re "I") (str.to_re "J") (str.to_re "K") (str.to_re "L") (str.to_re "M") (str.to_re "N") (str.to_re "O") (str.to_re "P") (str.to_re "Q") (str.to_re "R") (str.to_re "S") (str.to_re "T") (str.to_re "U") (str.to_re "V") (str.to_re "W") (str.to_re "X") (str.to_re "Y") (str.to_re "Z") (str.to_re "a") (str.to_re "b") (str.to_re "c") (str.to_re "d") (str.to_re "e") (str.to_re "f") (str.to_re "g") (str.to_re "h") (str.to_re "i") (str.to_re "j") (str.to_re "k") (str.to_re "l") (str.to_re "m") (str.to_re "n") (str.to_re "o") (str.to_re "p") (str.to_re "q") (str.to_re "r") (str.to_re "s") (str.to_re "t") (str.to_re "u") (str.to_re "v") (str.to_re "w") (str.to_re "x") (str.to_re "y") (str.to_re "z") ))
)

(assert (str.in_re sym5252 Alphabet))
(assert (str.in_re sym4221 Alphabet))
(assert (str.in_re sym3375 Alphabet))
(assert (str.in_re sym1450 Alphabet))
(assert (str.in_re sym5058 Alphabet))
(assert (str.in_re sym4423 Alphabet))
(assert (str.in_re sym2741 Alphabet))
(assert (str.in_re sym4005 Alphabet))
(assert (str.in_re sym3159 Alphabet))
(assert (str.in_re sym1234 Alphabet))
(assert (str.in_re sym3577 Alphabet))
(assert (str.in_re sym5438 Alphabet))
(assert (str.in_re sym2525 Alphabet))
(assert (str.in_re sym2943 Alphabet))
(assert (str.in_re sym1876 Alphabet))
(assert (str.in_re sym1659 Alphabet))
(assert (str.in_re sym2308 Alphabet))
(assert (str.in_re sym812 Alphabet))
(assert (str.in_re sym2092 Alphabet))
(assert (str.in_re sym161 Alphabet))
(assert (str.in_re sym4855 Alphabet))
(assert (str.in_re sym3789 Alphabet))
(assert (str.in_re sym1028 Alphabet))
(assert (str.in_re sym4639 Alphabet))
(assert (str.in_re sym547 Alphabet))
(assert (str.in_re sym205 Alphabet))(assert (<= 1 (str.len sym1450 )))
(assert (<= 1 (str.len sym4639 )))
(assert (<= 1 (str.len sym1028 )))
(assert (<= 1 (str.len sym4423 )))
(assert (<= 1 (str.len sym1876 )))
(assert (<= 1 (str.len sym4005 )))
(assert (<= 1 (str.len sym1234 )))
(assert (<= 1 (str.len sym4221 )))
(assert (<= 1 (str.len sym812 )))
(assert (<= 1 (str.len sym205 )))
(assert (<= 1 (str.len sym3159 )))
(assert (<= 1 (str.len sym2943 )))
(assert (<= 1 (str.len sym4855 )))
(assert (<= 1 (str.len sym2741 )))
(assert (<= 1 (str.len sym2525 )))
(assert (<= 1 (str.len sym3375 )))
(assert (<= 1 (str.len sym3577 )))
(assert (<= 1 (str.len sym1659 )))
(assert (<= 1 (str.len sym3789 )))
(assert (<= 1 (str.len sym2092 )))
(assert (<= 1 (str.len sym547 )))
(assert (<= 1 (str.len sym5438 )))
(assert (<= 1 (str.len sym5252 )))
(assert (<= 1 (str.len sym5058 )))
(assert (<= 1 (str.len sym2308 )))

(assert (not (= "" sym1876 )))
(assert (not (= "" sym4855 )))
(assert (not (= (str.to_lower (str.substr sym2308  0 1))"k" )))
(assert (= (str.to_lower (str.substr sym5058  0 1))"g" ))
(assert (= (str.to_lower (str.substr sym5252  0 1))"g" ))
(assert (not (= (str.to_lower (str.substr sym3577  0 1))"q" )))
(assert (not (= (str.to_lower (str.substr sym3577  0 1))"p" )))
(assert (not (= (str.to_lower (str.substr sym1234  0 1))"p" )))
(assert (not (= "" sym547 )))
(assert (not (= (str.to_lower (str.substr sym1450  0 1))"q" )))
(assert (not (= "" sym3577 )))
(assert (not (= (str.to_lower (str.substr sym2092  0 1))"k" )))
(assert (not (= "" "y" )))
(assert (not (= (str.to_lower (str.substr sym4855  0 1))"q" )))
(assert (not (= "" sym5438 )))
(assert (not (= (str.to_lower (str.substr sym1876  0 1))"g" )))
(assert (not (= (str.to_lower (str.substr sym5058  0 1))"p" )))
(assert (not (= "" sym3375 )))
(assert (not (= (str.to_lower (str.substr sym3789  0 1))"q" )))
(assert (not (= "y" "n" )))
(assert (= "y" "y" ))
(assert (not (= (str.to_lower (str.substr sym3159  0 1))"p" )))
(assert (= (str.to_lower (str.substr sym4005  0 1))"g" ))
(assert (not (= "" sym1028 )))
(assert (not (= (str.to_lower (str.substr sym5438  0 1))"q" )))
(assert (not (= (str.to_lower (str.substr sym4221  0 1))"q" )))
(assert (not (= (str.to_lower (str.substr sym3375  0 1))"p" )))
(assert (not (= "" sym4005 )))
(assert (not (= "" sym205 )))
(assert (not (= "" sym161 )))
(assert (not (= "" sym2092 )))
(assert (not (= (str.to_lower (str.substr sym4639  0 1))"q" )))
(assert (= (str.to_lower (str.substr sym2741  0 1))"g" ))
(assert (not (= (str.to_lower (str.substr sym4639  0 1))"p" )))
(assert (not (= (str.to_lower (str.substr sym3159  0 1))"q" )))
(assert (= (str.to_lower (str.substr sym1659  0 1))"g" ))
(assert (not (= (str.to_lower (str.substr sym2741  0 1))"p" )))
(assert (not (= (str.to_lower (str.substr sym4005  0 1))"p" )))
(assert (not (= (str.to_lower (str.substr sym4855  0 1))"k" )))
(assert (not (= "" sym2943 )))
(assert (= (str.to_lower (str.substr sym5438  0 1))"g" ))
(assert (not (= (str.to_lower (str.substr sym4423  0 1))"q" )))
(assert (not (= "" sym5058 )))
(assert (not (= (str.to_lower (str.substr sym812  0 1))"p" )))
(assert (not (= (str.to_lower (str.substr sym1028  0 1))"k" )))
(assert (not (= (str.to_lower (str.substr sym3577  0 1))"g" )))
(assert (not (= (str.to_lower (str.substr sym2308  0 1))"r" )))
(assert (not (= (str.to_lower (str.substr sym547  0 1))"p" )))
(assert (= (str.to_lower (str.substr sym812  0 1))"g" ))
(assert (not (= "" sym3159 )))
(assert (not (= (str.to_lower (str.substr sym1028  0 1))"q" )))
(assert (not (= (str.to_lower (str.substr sym2741  0 1))"k" )))
(assert (not (= (str.to_lower (str.substr sym4221  0 1))"k" )))
(assert (not (= (str.to_lower (str.substr sym1876  0 1))"q" )))
(assert (= (str.to_lower (str.substr sym4639  0 1))"g" ))
(assert (not (= (str.to_lower (str.substr sym5058  0 1))"k" )))
(assert (not (= (str.to_lower (str.substr sym4423  0 1))"k" )))
(assert (not (= (str.to_lower (str.substr sym1450  0 1))"p" )))
(assert (not (= (str.to_lower (str.substr sym3577  0 1))"k" )))
(assert (not (= (str.to_lower (str.substr sym4855  0 1))"p" )))
(assert (not (= (str.to_lower (str.substr sym5252  0 1))"q" )))
(assert (= (str.to_lower (str.substr sym4423  0 1))"g" ))
(assert (not (= (str.to_lower (str.substr sym2308  0 1))"g" )))
(assert (not (= (str.to_lower (str.substr sym4005  0 1))"q" )))
(assert (not (= (str.to_lower (str.substr sym1876  0 1))"p" )))
(assert (not (= (str.to_lower (str.substr sym4639  0 1))"k" )))
(assert (not (= (str.to_lower (str.substr sym2525  0 1))"p" )))
(assert (= (str.to_lower (str.substr sym1450  0 1))"g" ))
(assert (= (str.to_lower (str.substr sym1234  0 1))"g" ))
(assert (not (= (str.to_lower (str.substr sym547  0 1))"q" )))
(assert (not (= "" (str.to_lower (str.substr sym205  0 1)))))
(assert (= (str.to_lower (str.substr sym2308  0 1))"h" ))
(assert (not (= "" sym812 )))
(assert (= (str.to_lower (str.substr sym205  0 1))"y" ))
(assert (not (= (str.to_lower (str.substr sym3375  0 1))"k" )))
(assert (not (= (str.to_lower (str.substr sym5252  0 1))"p" )))
(assert (not (= (str.to_lower (str.substr sym1234  0 1))"q" )))
(assert (not (= (str.to_lower (str.substr sym3789  0 1))"k" )))
(assert (not (= (str.to_lower (str.substr sym812  0 1))"q" )))
(assert (= (str.to_lower (str.substr sym1876  0 1))"l" ))
(assert (not (= "" sym4423 )))
(assert (= "" "" ))
(assert (not (= (str.to_lower (str.substr sym1659  0 1))"p" )))
(assert (not (= (str.to_lower (str.substr sym4423  0 1))"p" )))
(assert (= (str.to_lower (str.substr sym2943  0 1))"g" ))
(assert (not (= (str.to_lower (str.substr sym2308  0 1))"p" )))
(assert (not (= (str.to_lower (str.substr sym2741  0 1))"q" )))
(assert (= (str.to_lower (str.substr sym3577  0 1))"l" ))
(assert (not (= (str.to_lower (str.substr sym5252  0 1))"k" )))
(assert (not (= (str.to_lower (str.substr sym3375  0 1))"q" )))
(assert (not (= (str.to_lower (str.substr sym2308  0 1))"q" )))
(assert (not (= (str.to_lower (str.substr sym5058  0 1))"q" )))
(assert (not (= (str.to_lower (str.substr sym1028  0 1))"p" )))
(assert (not (= "" sym4221 )))
(assert (not (= "" sym2308 )))
(assert (not (= (str.to_lower (str.substr sym1876  0 1))"r" )))
(assert (not (= (str.to_lower (str.substr sym1450  0 1))"k" )))
(assert (not (= (str.to_lower (str.substr sym3159  0 1))"k" )))
(assert (not (= (str.to_lower (str.substr sym1876  0 1))"k" )))
(assert (not (= (str.to_lower (str.substr sym2525  0 1))"k" )))
(assert (not (= (str.to_lower (str.substr sym5438  0 1))"p" )))
(assert (not (= (str.to_lower (str.substr sym4221  0 1))"p" )))
(assert (= (str.to_lower (str.substr sym1028  0 1))"g" ))
(assert (= (str.to_lower (str.substr sym547  0 1))"g" ))
(assert (= (str.to_lower (str.substr sym2092  0 1))"g" ))
(assert (not (= (str.to_lower (str.substr sym2943  0 1))"k" )))
(assert (not (= "" sym1234 )))
(assert (not (= "" sym1659 )))
(assert (not (= "" sym1450 )))
(assert (not (= "" "y" )))
(assert (not (= "" sym3789 )))
(assert (not (= (str.to_lower (str.substr sym1659  0 1))"q" )))
(assert (= (str.to_lower (str.substr sym3789  0 1))"g" ))
(assert (= (str.to_lower (str.substr sym3159  0 1))"g" ))
(assert (not (= (str.to_lower (str.substr sym2943  0 1))"p" )))
(assert (not (= (str.to_lower (str.substr sym5438  0 1))"k" )))
(assert (not (= (str.to_lower (str.substr sym2308  0 1))"l" )))
(assert (not (= "" sym4639 )))
(assert (not (= (str.to_lower (str.substr sym812  0 1))"k" )))
(assert (not (= "" "q" )))
(assert (not (= (str.to_lower (str.substr sym2092  0 1))"p" )))
(assert (not (= (str.to_lower (str.substr sym1234  0 1))"k" )))
(assert (not (= (str.to_lower (str.substr sym2943  0 1))"q" )))
(assert (= (str.to_lower (str.substr sym2525  0 1))"g" ))
(assert (= (str.to_lower (str.substr sym3375  0 1))"g" ))
(assert (not (= (str.to_lower (str.substr sym1659  0 1))"k" )))
(assert (not (= (str.to_lower (str.substr sym2525  0 1))"q" )))
(assert (not (= (str.to_lower (str.substr sym547  0 1))"k" )))
(assert (not (= (str.to_lower (str.substr sym3577  0 1))"r" )))
(assert (= (str.to_lower (str.substr sym4221  0 1))"g" ))
(assert (not (= "" sym2741 )))
(assert (not (= (str.to_lower (str.substr sym2092  0 1))"q" )))
(assert (not (= "" sym2525 )))
(assert (= (str.to_lower (str.substr sym4855  0 1))"g" ))
(assert (not (= "" sym5252 )))
(assert (not (= (str.to_lower (str.substr sym4005  0 1))"k" )))
(assert (not (= (str.to_lower (str.substr sym3789  0 1))"p" )))
(check-sat)
(get-model)
(exit)
